SPARKNaCl/why3-z3/sparknacl-utils.adb_238_24_predicate_check_1.smt2
;; produced by z3_gnatprove.drv ;;
(set-info :smt-lib-version 2.5)
(set-info :source |VC generated by SPARK 2014|)
(set-info :category industrial)
(set-info :status unknown)
;;; generated by SMT-LIB2 driver
;;; SMT-LIB2 driver: bit-vectors, common part
;;; SMT-LIB2: integer arithmetic
(declare-sort gf16_normal_limb 0)

;; "to_rep"
(declare-fun to_rep (gf16_normal_limb) (_ BitVec 16))

;; "of_rep"
(declare-fun of_rep ((_ BitVec 16)) gf16_normal_limb)

;; "inversion_axiom"
(assert
  (forall ((x gf16_normal_limb))
    (! (= (of_rep (to_rep x)) x) :pattern ((to_rep x)) )))

;; "range_axiom"
(assert true)

;; "coerce_axiom"
(assert
  (forall ((x (_ BitVec 16)))
    (! (= (to_rep (of_rep x)) x) :pattern ((to_rep (of_rep x))) )))

(declare-sort map1 0)

;; "has_bounds"
(declare-fun has_bounds (map1
  Int
  Int) Bool)

;; "get"
(declare-fun get (map1
  Int) gf16_normal_limb)

(declare-const x map1)

(declare-sort gf32_any_limb 0)

;; "gf32_any_limb'int"
(declare-fun gf32_any_limbqtint (gf32_any_limb) Int)

;; "gf32_any_limb'axiom"
(assert
  (forall ((i gf32_any_limb))
    (and
      (<= (- 65536) (gf32_any_limbqtint i))
      (<= (gf32_any_limbqtint i) 132051011))))

;; "in_range"
(define-fun in_range ((x1 Int)) Bool
  (and (<= (- 65536) x1) (<= x1 132051011)))

;; "to_rep"
(define-fun to_rep1 ((x1 gf32_any_limb)) Int
  (gf32_any_limbqtint x1))

;; "of_rep"
(declare-fun of_rep1 (Int) gf32_any_limb)

;; "inversion_axiom"
(assert
  (forall ((x1 gf32_any_limb))
    (! (= (of_rep1 (to_rep1 x1)) x1) :pattern ((to_rep1 x1)) )))

;; "range_axiom"
(assert
  (forall ((x1 gf32_any_limb))
    (! (in_range (to_rep1 x1)) :pattern ((to_rep1 x1)) )))

;; "coerce_axiom"
(assert
  (forall ((x1 Int))
    (! (=> (in_range x1) (= (to_rep1 (of_rep1 x1)) x1)) :pattern ((to_rep1
                                                                    (of_rep1
                                                                    x1))) )))

(declare-sort map2 0)

;; "has_bounds"
(declare-fun has_bounds1 (map2
  Int
  Int) Bool)

;; "get"
(declare-fun get1 (map2
  Int) gf32_any_limb)

;; "in_range"
(define-fun in_range1 ((x1 Int)) Bool
  (and (<= 0 x1) (<= x1 65535)))

;; "temp_____aggregate_def_199"
(declare-fun temp_____aggregate_def_199 (Int
  Int
  Int
  Int
  Int
  Int
  Int
  Int
  Int
  Int
  Int
  Int
  Int
  Int
  Int
  Int) map2)

;; "Assume"
(assert (has_bounds x 0 15))

;; "o"
(define-fun o () gf16_normal_limb
  (get x 15))

;; "get'result'unused"
(define-fun getqtresultqtunused () gf16_normal_limb
  o)

(declare-const o1 (_ BitVec 16))

;; "Ensures"
(assert (= (to_rep o) o1))

;; "to_rep'result'unused"
(define-fun to_repqtresultqtunused () (_ BitVec 16)
  o1)

;; "o"
(define-fun o2 () Int
  (bv2int o1))

;; "t_int'result'unused"
(define-fun t_intqtresultqtunused () Int
  o2)

;; "o"
(define-fun o3 () gf16_normal_limb
  (get x 14))

;; "get'result'unused"
(define-fun getqtresultqtunused1 () gf16_normal_limb
  o3)

(declare-const o4 (_ BitVec 16))

;; "Ensures"
(assert (= (to_rep o3) o4))

;; "to_rep'result'unused"
(define-fun to_repqtresultqtunused1 () (_ BitVec 16)
  o4)

;; "o"
(define-fun o5 () Int
  (bv2int o4))

;; "t_int'result'unused"
(define-fun t_intqtresultqtunused1 () Int
  o5)

;; "o"
(define-fun o6 () gf16_normal_limb
  (get x 13))

;; "get'result'unused"
(define-fun getqtresultqtunused2 () gf16_normal_limb
  o6)

(declare-const o7 (_ BitVec 16))

;; "Ensures"
(assert (= (to_rep o6) o7))

;; "to_rep'result'unused"
(define-fun to_repqtresultqtunused2 () (_ BitVec 16)
  o7)

;; "o"
(define-fun o8 () Int
  (bv2int o7))

;; "t_int'result'unused"
(define-fun t_intqtresultqtunused2 () Int
  o8)

;; "o"
(define-fun o9 () gf16_normal_limb
  (get x 12))

;; "get'result'unused"
(define-fun getqtresultqtunused3 () gf16_normal_limb
  o9)

(declare-const o10 (_ BitVec 16))

;; "Ensures"
(assert (= (to_rep o9) o10))

;; "to_rep'result'unused"
(define-fun to_repqtresultqtunused3 () (_ BitVec 16)
  o10)

;; "o"
(define-fun o11 () Int
  (bv2int o10))

;; "t_int'result'unused"
(define-fun t_intqtresultqtunused3 () Int
  o11)

;; "o"
(define-fun o12 () gf16_normal_limb
  (get x 11))

;; "get'result'unused"
(define-fun getqtresultqtunused4 () gf16_normal_limb
  o12)

(declare-const o13 (_ BitVec 16))

;; "Ensures"
(assert (= (to_rep o12) o13))

;; "to_rep'result'unused"
(define-fun to_repqtresultqtunused4 () (_ BitVec 16)
  o13)

;; "o"
(define-fun o14 () Int
  (bv2int o13))

;; "t_int'result'unused"
(define-fun t_intqtresultqtunused4 () Int
  o14)

;; "o"
(define-fun o15 () gf16_normal_limb
  (get x 10))

;; "get'result'unused"
(define-fun getqtresultqtunused5 () gf16_normal_limb
  o15)

(declare-const o16 (_ BitVec 16))

;; "Ensures"
(assert (= (to_rep o15) o16))

;; "to_rep'result'unused"
(define-fun to_repqtresultqtunused5 () (_ BitVec 16)
  o16)

;; "o"
(define-fun o17 () Int
  (bv2int o16))

;; "t_int'result'unused"
(define-fun t_intqtresultqtunused5 () Int
  o17)

;; "o"
(define-fun o18 () gf16_normal_limb
  (get x 9))

;; "get'result'unused"
(define-fun getqtresultqtunused6 () gf16_normal_limb
  o18)

(declare-const o19 (_ BitVec 16))

;; "Ensures"
(assert (= (to_rep o18) o19))

;; "to_rep'result'unused"
(define-fun to_repqtresultqtunused6 () (_ BitVec 16)
  o19)

;; "o"
(define-fun o20 () Int
  (bv2int o19))

;; "t_int'result'unused"
(define-fun t_intqtresultqtunused6 () Int
  o20)

;; "o"
(define-fun o21 () gf16_normal_limb
  (get x 8))

;; "get'result'unused"
(define-fun getqtresultqtunused7 () gf16_normal_limb
  o21)

(declare-const o22 (_ BitVec 16))

;; "Ensures"
(assert (= (to_rep o21) o22))

;; "to_rep'result'unused"
(define-fun to_repqtresultqtunused7 () (_ BitVec 16)
  o22)

;; "o"
(define-fun o23 () Int
  (bv2int o22))

;; "t_int'result'unused"
(define-fun t_intqtresultqtunused7 () Int
  o23)

;; "o"
(define-fun o24 () gf16_normal_limb
  (get x 7))

;; "get'result'unused"
(define-fun getqtresultqtunused8 () gf16_normal_limb
  o24)

(declare-const o25 (_ BitVec 16))

;; "Ensures"
(assert (= (to_rep o24) o25))

;; "to_rep'result'unused"
(define-fun to_repqtresultqtunused8 () (_ BitVec 16)
  o25)

;; "o"
(define-fun o26 () Int
  (bv2int o25))

;; "t_int'result'unused"
(define-fun t_intqtresultqtunused8 () Int
  o26)

;; "o"
(define-fun o27 () gf16_normal_limb
  (get x 6))

;; "get'result'unused"
(define-fun getqtresultqtunused9 () gf16_normal_limb
  o27)

(declare-const o28 (_ BitVec 16))

;; "Ensures"
(assert (= (to_rep o27) o28))

;; "to_rep'result'unused"
(define-fun to_repqtresultqtunused9 () (_ BitVec 16)
  o28)

;; "o"
(define-fun o29 () Int
  (bv2int o28))

;; "t_int'result'unused"
(define-fun t_intqtresultqtunused9 () Int
  o29)

;; "o"
(define-fun o30 () gf16_normal_limb
  (get x 5))

;; "get'result'unused"
(define-fun getqtresultqtunused10 () gf16_normal_limb
  o30)

(declare-const o31 (_ BitVec 16))

;; "Ensures"
(assert (= (to_rep o30) o31))

;; "to_rep'result'unused"
(define-fun to_repqtresultqtunused10 () (_ BitVec 16)
  o31)

;; "o"
(define-fun o32 () Int
  (bv2int o31))

;; "t_int'result'unused"
(define-fun t_intqtresultqtunused10 () Int
  o32)

;; "o"
(define-fun o33 () gf16_normal_limb
  (get x 4))

;; "get'result'unused"
(define-fun getqtresultqtunused11 () gf16_normal_limb
  o33)

(declare-const o34 (_ BitVec 16))

;; "Ensures"
(assert (= (to_rep o33) o34))

;; "to_rep'result'unused"
(define-fun to_repqtresultqtunused11 () (_ BitVec 16)
  o34)

;; "o"
(define-fun o35 () Int
  (bv2int o34))

;; "t_int'result'unused"
(define-fun t_intqtresultqtunused11 () Int
  o35)

;; "o"
(define-fun o36 () gf16_normal_limb
  (get x 3))

;; "get'result'unused"
(define-fun getqtresultqtunused12 () gf16_normal_limb
  o36)

(declare-const o37 (_ BitVec 16))

;; "Ensures"
(assert (= (to_rep o36) o37))

;; "to_rep'result'unused"
(define-fun to_repqtresultqtunused12 () (_ BitVec 16)
  o37)

;; "o"
(define-fun o38 () Int
  (bv2int o37))

;; "t_int'result'unused"
(define-fun t_intqtresultqtunused12 () Int
  o38)

;; "o"
(define-fun o39 () gf16_normal_limb
  (get x 2))

;; "get'result'unused"
(define-fun getqtresultqtunused13 () gf16_normal_limb
  o39)

(declare-const o40 (_ BitVec 16))

;; "Ensures"
(assert (= (to_rep o39) o40))

;; "to_rep'result'unused"
(define-fun to_repqtresultqtunused13 () (_ BitVec 16)
  o40)

;; "o"
(define-fun o41 () Int
  (bv2int o40))

;; "t_int'result'unused"
(define-fun t_intqtresultqtunused13 () Int
  o41)

;; "o"
(define-fun o42 () gf16_normal_limb
  (get x 1))

;; "get'result'unused"
(define-fun getqtresultqtunused14 () gf16_normal_limb
  o42)

(declare-const o43 (_ BitVec 16))

;; "Ensures"
(assert (= (to_rep o42) o43))

;; "to_rep'result'unused"
(define-fun to_repqtresultqtunused14 () (_ BitVec 16)
  o43)

;; "o"
(define-fun o44 () Int
  (bv2int o43))

;; "t_int'result'unused"
(define-fun t_intqtresultqtunused14 () Int
  o44)

;; "o"
(define-fun o45 () gf16_normal_limb
  (get x 0))

;; "get'result'unused"
(define-fun getqtresultqtunused15 () gf16_normal_limb
  o45)

(declare-const o46 (_ BitVec 16))

;; "Ensures"
(assert (= (to_rep o45) o46))

;; "to_rep'result'unused"
(define-fun to_repqtresultqtunused15 () (_ BitVec 16)
  o46)

;; "o"
(define-fun o47 () Int
  (bv2int o46))

;; "t_int'result'unused"
(define-fun t_intqtresultqtunused15 () Int
  o47)

(declare-const temp___1083 map2)

;; "H"
(assert (= (to_rep1 (get1 temp___1083 0)) o47))

;; "H"
(assert (= (to_rep1 (get1 temp___1083 1)) o44))

;; "H"
(assert (= (to_rep1 (get1 temp___1083 2)) o41))

;; "H"
(assert (= (to_rep1 (get1 temp___1083 3)) o38))

;; "H"
(assert (= (to_rep1 (get1 temp___1083 4)) o35))

;; "H"
(assert (= (to_rep1 (get1 temp___1083 5)) o32))

;; "H"
(assert (= (to_rep1 (get1 temp___1083 6)) o29))

;; "H"
(assert (= (to_rep1 (get1 temp___1083 7)) o26))

;; "H"
(assert (= (to_rep1 (get1 temp___1083 8)) o23))

;; "H"
(assert (= (to_rep1 (get1 temp___1083 9)) o20))

;; "H"
(assert (= (to_rep1 (get1 temp___1083 10)) o17))

;; "H"
(assert (= (to_rep1 (get1 temp___1083 11)) o14))

;; "H"
(assert (= (to_rep1 (get1 temp___1083 12)) o11))

;; "H"
(assert (= (to_rep1 (get1 temp___1083 13)) o8))

;; "H"
(assert (= (to_rep1 (get1 temp___1083 14)) o5))

;; "H"
(assert (= (to_rep1 (get1 temp___1083 15)) o2))

;; "H"
(assert (has_bounds1 temp___1083 0 15))

;; "H"
(assert
  (= temp___1083 (temp_____aggregate_def_199
                   o47
                   o44
                   o41
                   o38
                   o35
                   o32
                   o29
                   o26
                   o23
                   o20
                   o17
                   o14
                   o11
                   o8
                   o5
                   o2)))

;; "temp_____aggregate_def_199'result'unused"
(define-fun temp_____aggregate_def_199qtresultqtunused () map2
  temp___1083)

;; "Assert"
(assert
  (forall ((i Int))
    (=> (and (<= 0 i) (<= i 15)) (in_range1 (to_rep1 (get1 temp___1083 i))))))

(declare-const i Int)

;; "H"
(assert (<= 0 i))

;; "H"
(assert (<= i 15))

;; Goal "def'vc"
;; File "sparknacl-utils.adb", line 237, characters 0-0
(assert
  (not (<= 0 (to_rep1 (get1 temp___1083 i)))))

(check-sat)
